
Note: the module "julia" cannot be unloaded because it was not loaded.

2023/11/29
gurobi is now 11.0.0
previous version was 10.0.2
solving instance uflp nldep gunluk ../../../../../instances/uflp/gunluk/gunluk-20-40-1.txt sinabc2
The latest version of Julia in the `1.10` channel is 1.10.6+0.x64.linux.gnu. You currently have `1.10.5+0.x64.linux.gnu` installed. Run:

  juliaup update

in your terminal shell to install Julia 1.10.6+0.x64.linux.gnu and update the `1.10` channel to that version.
presolving:
(round 1, fast)       20 del vars, 800 del conss, 0 add conss, 20 chg bounds, 0 chg sides, 0 chg coeffs, 0 upgd conss, 0 impls, 0 clqs
   (0.0s) symmetry computation started: requiring (bin +, int +, cont +), (fixed: bin -, int -, cont -)
   (0.0s) no symmetry present (symcode time: 0.00)
presolving (2 rounds: 2 fast, 1 medium, 1 exhaustive):
 20 deleted vars, 800 deleted constraints, 0 added constraints, 20 tightened bounds, 0 added holes, 0 changed sides, 0 changed coefficients
 0 implications, 0 cliques
presolved problem has 840 variables (0 bin, 0 int, 0 impl, 840 cont) and 80 constraints
     60 constraints of type <linear>
     20 constraints of type <nonlinear>
Presolving Time: 0.01

 time | node  | left  |LP iter|LP it/n|mem/heur|mdpt |vars |cons |rows |cuts |sepa|confs|strbr|  dualbound   | primalbound  |  gap   | compl. 
  0.0s|     1 |     0 |   142 |     - |  7556k |   0 | 900 |  80 | 260 |   0 |  0 |   0 |   0 | 2.576086e+02 |      --      |    Inf | unknown
L 0.0s|     1 |     0 |   142 |     - |undercov|   0 | 900 |  80 | 260 |   0 |  0 |   0 |   0 | 2.576086e+02 | 2.795299e+02 |   8.51%| unknown
L 0.1s|     1 |     0 |   142 |     - |undercov|   0 | 900 |  80 | 260 |   0 |  0 |   0 |   0 | 2.576086e+02 | 2.768584e+02 |   7.47%| unknown
L 0.2s|     1 |     0 |   142 |     - |  subnlp|   0 | 900 |  80 | 260 |   0 |  0 |   0 |   0 | 2.576086e+02 | 2.768584e+02 |   7.47%| unknown
  0.2s|     1 |     0 |   164 |     - |  7961k |   0 | 900 |  80 | 277 |  17 |  1 |   0 |   0 | 2.589830e+02 | 2.768584e+02 |   6.90%| unknown
  0.2s|     1 |     0 |   164 |     - |  7961k |   0 | 900 |  80 | 277 |  17 |  1 |   0 |   0 | 2.589830e+02 | 2.768584e+02 |   6.90%| unknown
  0.2s|     1 |     0 |   167 |     - |  7961k |   0 | 900 |  80 | 281 |  21 |  2 |   0 |   0 | 2.590402e+02 | 2.768584e+02 |   6.88%| unknown
  0.2s|     1 |     0 |   169 |     - |  7961k |   0 | 900 |  80 | 283 |  23 |  3 |   0 |   0 | 2.590539e+02 | 2.768584e+02 |   6.87%| unknown
  0.2s|     1 |     0 |   171 |     - |  7976k |   0 | 900 |  80 | 285 |  25 |  4 |   0 |   0 | 2.590584e+02 | 2.768584e+02 |   6.87%| unknown
  0.3s|     1 |     0 |   899 |     - |  8505k |   0 | 900 |  80 | 285 |  25 |  5 |   0 |   0 | 2.612150e+02 | 2.768584e+02 |   5.99%| unknown
  0.3s|     1 |     0 |   937 |     - |  8505k |   0 | 900 |  80 | 305 |  45 |  6 |   0 |   0 | 2.723451e+02 | 2.768584e+02 |   1.66%| unknown
  0.3s|     1 |     0 |   955 |     - |  8513k |   0 | 900 |  80 | 321 |  61 |  7 |   0 |   0 | 2.734154e+02 | 2.768584e+02 |   1.26%| unknown
  0.3s|     1 |     0 |   960 |     - |  8513k |   0 | 900 |  80 | 326 |  66 |  8 |   0 |   0 | 2.734589e+02 | 2.768584e+02 |   1.24%| unknown
  0.3s|     1 |     0 |   962 |     - |  8513k |   0 | 900 |  80 | 329 |  69 |  9 |   0 |   0 | 2.734651e+02 | 2.768584e+02 |   1.24%| unknown
  0.3s|     1 |     0 |   964 |     - |  8513k |   0 | 900 |  80 | 206 |  72 | 10 |   0 |   0 | 2.734702e+02 | 2.768584e+02 |   1.24%| unknown
 time | node  | left  |LP iter|LP it/n|mem/heur|mdpt |vars |cons |rows |cuts |sepa|confs|strbr|  dualbound   | primalbound  |  gap   | compl. 
  0.3s|     1 |     0 |   966 |     - |  8513k |   0 | 900 |  80 | 207 |  73 | 11 |   0 |   0 | 2.734708e+02 | 2.768584e+02 |   1.24%| unknown
  0.3s|     1 |     0 |   967 |     - |  8513k |   0 | 900 |  80 | 208 |  74 | 12 |   0 |   0 | 2.734713e+02 | 2.768584e+02 |   1.24%| unknown
L 0.3s|     1 |     0 |   967 |     - |  subnlp|   0 | 900 |  80 | 208 |  74 | 13 |   0 |   0 | 2.734713e+02 | 2.768584e+02 |   1.24%| unknown
  0.3s|     1 |     0 |   967 |     - |  8513k |   0 | 900 |  80 | 208 |  74 | 13 |   0 |   0 | 2.734713e+02 | 2.768584e+02 |   1.24%| unknown
  0.3s|     1 |     2 |   967 |     - |  8552k |   0 | 900 |  80 | 208 |  74 | 14 |   0 |   0 | 2.734713e+02 | 2.768584e+02 |   1.24%| unknown
L 0.4s|     2 |     3 |   969 | 705.0 |  subnlp|   1 | 900 |  80 | 124 |  76 |  3 |   0 |   0 | 2.734713e+02 | 2.768584e+02 |   1.24%| unknown
L 0.7s|     8 |     7 |   995 | 104.4 |  subnlp|   5 | 900 |  80 | 141 | 100 |  4 |   0 |   0 | 2.734713e+02 | 2.768584e+02 |   1.24%|  44.35%
  1.0s|   100 |    35 |  1296 |  10.4 |  9488k |  16 | 900 |  80 | 164 | 255 |  2 |   0 |   0 | 2.764723e+02 | 2.768584e+02 |   0.14%|  86.89%
  1.1s|   200 |    49 |  1718 |   7.3 |  9665k |  19 | 900 |  80 | 175 | 465 |  2 |   0 |   0 | 2.767164e+02 | 2.768584e+02 |   0.05%|  92.58%
  1.2s|   300 |    61 |  2075 |   6.1 |  9899k |  25 | 900 |  80 | 177 | 684 |  3 |   0 |   0 | 2.767482e+02 | 2.768584e+02 |   0.04%|  95.30%
d 1.4s|   387 |    50 |  2337 |   5.4 |adaptive|  27 | 900 |  80 | 190 | 821 |  0 |   0 |   0 | 2.767547e+02 | 2.768584e+02 |   0.04%|  96.72%
  1.5s|   400 |    55 |  2382 |   5.3 |  9916k |  28 | 900 |  80 | 182 | 845 |  0 |   0 |   0 | 2.767561e+02 | 2.768584e+02 |   0.04%|  96.87%
  1.5s|   500 |    59 |  2610 |   4.7 |    10M |  32 | 900 |  80 | 206 | 953 |  0 |   0 |   0 | 2.768040e+02 | 2.768584e+02 |   0.02%|  98.73%
  1.6s|   600 |    65 |  2798 |   4.2 |    10M |  38 | 900 |  80 | 245 |1056 |  0 |   0 |   0 | 2.768086e+02 | 2.768584e+02 |   0.02%|  99.38%
  1.8s|   700 |    47 |  3004 |   3.9 |    10M |  46 | 900 |  80 | 198 |1149 |  0 |   0 |   0 | 2.768357e+02 | 2.768584e+02 |   0.01%|  99.84%
 time | node  | left  |LP iter|LP it/n|mem/heur|mdpt |vars |cons |rows |cuts |sepa|confs|strbr|  dualbound   | primalbound  |  gap   | compl. 
  1.8s|   800 |    35 |  3213 |   3.7 |    10M |  52 | 900 |  80 | 218 |1247 |  1 |   0 |   0 | 2.768357e+02 | 2.768584e+02 |   0.01%|  99.93%
  1.9s|   900 |    35 |  3383 |   3.5 |    10M |  64 | 900 |  80 | 235 |1334 |  0 |   0 |   0 | 2.768404e+02 | 2.768584e+02 |   0.01%|  99.95%

SCIP Status        : problem is solved [optimal solution found]
Solving Time (sec) : 2.02
Solving Nodes      : 983
Primal Bound       : +2.76858354610415e+02 (9 solutions)
Dual Bound         : +2.76858354610415e+02
Gap                : 0.00 %
Generating Gunluk and Lee data file ../../../../../instances/uflp/gunluk/gunluk-20-40-1.txt
primal_bound = 276.8583546104147, dual_bound = 276.8583546104147, gap = 0.0, time = 4.6
